c File: instances/22_0.65_1.col
c
c Description: Random graph of size 22 vertices and P(0.65) of edges between any two vertices.
p col 22 231
e 1 3
e 1 4
e 1 5
e 1 7
e 1 8
e 1 9
e 1 10
e 1 12
e 1 14
e 1 15
e 1 16
e 1 17
e 1 19
e 1 21
e 1 22
e 2 4
e 2 6
e 2 7
e 2 8
e 2 9
e 2 10
e 2 12
e 2 14
e 2 16
e 2 17
e 2 20
e 2 21
e 2 22
e 3 4
e 3 5
e 3 6
e 3 7
e 3 8
e 3 10
e 3 11
e 3 12
e 3 16
e 3 17
e 3 18
e 3 21
e 3 22
e 4 6
e 4 7
e 4 8
e 4 9
e 4 10
e 4 11
e 4 15
e 4 20
e 4 22
e 5 8
e 5 9
e 5 10
e 5 11
e 5 13
e 5 14
e 5 15
e 5 17
e 5 18
e 5 20
e 5 22
e 6 8
e 6 9
e 6 10
e 6 13
e 6 14
e 6 15
e 6 16
e 6 17
e 6 19
e 6 22
e 7 11
e 7 12
e 7 14
e 7 16
e 7 17
e 7 18
e 7 20
e 7 21
e 8 9
e 8 11
e 8 12
e 8 14
e 8 15
e 8 16
e 8 17
e 8 22
e 9 10
e 9 11
e 9 13
e 9 15
e 9 17
e 9 18
e 9 19
e 10 13
e 10 14
e 10 15
e 10 16
e 10 17
e 10 18
e 10 19
e 10 20
e 10 21
e 10 22
e 11 12
e 11 14
e 11 16
e 11 17
e 11 18
e 11 19
e 11 22
e 12 13
e 12 16
e 12 17
e 12 18
e 12 19
e 12 21
e 12 22
e 13 14
e 13 16
e 13 17
e 13 19
e 13 20
e 14 17
e 14 18
e 14 19
e 14 20
e 14 22
e 15 16
e 15 17
e 15 18
e 15 20
e 15 22
e 16 18
e 16 20
e 16 21
e 16 22
e 17 18
e 17 19
e 17 21
e 17 22
e 18 20
e 18 21
e 19 20
e 19 21
e 19 22
e 20 21